solution status: optimal solution found
objective value:                                34380
Vi47                                                1 	(obj:0)
Vi76                                                1 	(obj:0)
Vi78                                                1 	(obj:0)
Vi80                                                1 	(obj:0)
Vi83                                                1 	(obj:0)
Vi98                                                1 	(obj:0)
Vi111                                               1 	(obj:0)
Vi135                                               1 	(obj:0)
Vi145                                               1 	(obj:0)
Vi149                                               1 	(obj:0)
Vi152                                               1 	(obj:0)
Vi162                                               1 	(obj:0)
Vi168                                               1 	(obj:0)
Vi217                                               1 	(obj:0)
Vi223                                               1 	(obj:0)
Vi234                                               1 	(obj:0)
Vi252                                               1 	(obj:0)
Vi253                                               1 	(obj:0)
Vi286                                               1 	(obj:0)
Vi294                                               1 	(obj:0)
Vi339                                               1 	(obj:0)
Vi346                                               1 	(obj:0)
Vi348                                               1 	(obj:0)
Vi364                                               1 	(obj:0)
Vi397                                               1 	(obj:0)
Vi410                                               1 	(obj:0)
Vi421                                               1 	(obj:0)
Vi433                                               1 	(obj:0)
Vi481                                               1 	(obj:0)
Vi507                                               1 	(obj:0)
Vi540                                               1 	(obj:0)
Vi550                                               1 	(obj:0)
Vi571                                               1 	(obj:0)
Vi576                                               1 	(obj:0)
Vi609                                               1 	(obj:0)
Vi639                                               1 	(obj:0)
Vi645                                               1 	(obj:0)
Vi702                                               1 	(obj:0)
Vi715                                               1 	(obj:0)
Vi744                                               1 	(obj:0)
Vi800                                           34380 	(obj:1)
